============================[ Problem Statistics ]=============================|                                                                             ||  Number of variables:          4242                                         ||  Number of clauses:            9626                                         ||  Parse time:                   0.03 s                                       ||                                                                             |============================[ Search Statistics ]==============================| Conflicts |          ORIGINAL         |          LEARNT          | Progress ||           |    Vars  Clauses Literals |    Limit  Clauses Lit/Cl |          |==============================================================================================================================================================restarts              : 1conflicts             : 22             (512 /sec)decisions             : 109            (0.00 % random) (2535 /sec)propagations          : 8049           (187186 /sec)conflict literals     : 414            (94.86 % deleted)CPU time              : 0.043 sSATISFIABLE